
Gurobi 7.0.2 (mac64, Python) logging started Mon Feb 20 22:44:09 2017


Gurobi 7.0.2 (mac64, Python) logging started Mon Feb 20 22:44:12 2017


Gurobi 7.0.2 (mac64, Python) logging started Mon Feb 20 22:44:20 2017


Gurobi 7.0.2 (mac64, Python) logging started Mon Feb 20 22:44:23 2017


Gurobi 7.0.2 (mac64, Python) logging started Mon Feb 20 23:05:38 2017


Gurobi 7.0.2 (mac64, Python) logging started Mon Feb 20 23:07:22 2017


Gurobi 7.0.2 (mac64, Python) logging started Mon Feb 20 23:07:54 2017


Gurobi 7.0.2 (mac64, Python) logging started Mon Feb 20 23:08:29 2017


Gurobi 7.0.2 (mac64, Python) logging started Mon Feb 20 23:08:31 2017


Gurobi 7.0.2 (mac64, Python) logging started Mon Feb 20 23:08:39 2017


Gurobi 7.0.2 (mac64, Python) logging started Mon Feb 20 23:08:42 2017


Gurobi 7.0.2 (mac64, Python) logging started Mon Feb 20 23:08:46 2017


Gurobi 7.0.2 (mac64, Python) logging started Mon Feb 20 23:08:50 2017


Gurobi 7.0.2 (mac64, Python) logging started Mon Feb 20 23:08:55 2017


Gurobi 7.0.2 (mac64, Python) logging started Mon Feb 20 23:09:01 2017


Gurobi 7.0.2 (mac64, Python) logging started Mon Feb 20 23:09:07 2017

